sat
(:max-memory              36.01
 :memory                  19.60
 :num-allocs              154541140
 :rlimit-count            628904
 :sat-backjumps           463
 :sat-conflicts           463
 :sat-decisions           3115
 :sat-del-clause          19518
 :sat-elim-bool-vars-res  3932
 :sat-elim-clauses        372
 :sat-elim-literals       382
 :sat-minimized-lits      694
 :sat-mk-clause-2ary      14434
 :sat-mk-clause-3ary      9785
 :sat-mk-clause-nary      63680
 :sat-mk-var              14569
 :sat-probing-assigned    117
 :sat-propagations-2ary   88800
 :sat-propagations-nary   205617
 :sat-restarts            33
 :sat-scc-elim-vars       47
 :sat-subs-resolution     260
 :sat-subs-resolution-dyn 31
 :sat-subsumed            2725
 :sat-units               131
 :time                    0.23
 :total-time              0.24)
